Welcome to the CBC MILP Solver 
Version: 2.10.3 
Build Date: Dec 15 2019 

command line - /home/cdmonsalvea/AI_OR_Workflow/.venv/lib/python3.10/site-packages/pulp/solverdir/cbc/linux/64/cbc /tmp/00f95f11b53049e7a4a2f4495415ec0a-pulp.mps -sec 3600 -timeMode elapsed -branch -printingOptions all -solution /tmp/00f95f11b53049e7a4a2f4495415ec0a-pulp.sol (default strategy 1)
At line 2 NAME          MODEL
At line 3 ROWS
At line 75 COLUMNS
At line 3856 RHS
At line 3927 BOUNDS
At line 3963 ENDATA
Problem MODEL has 70 rows, 1260 columns and 2485 elements
Coin0008I MODEL read with 0 errors
seconds was changed from 1e+100 to 3600
Option for timeMode changed from cpu to elapsed
Continuous objective value is 5.62601e+07 - 0.00 seconds
Cgl0004I processed model has 70 rows, 1260 columns (35 integer (35 of which binary)) and 2485 elements
Cbc0038I Initial state - 35 integers unsatisfied sum - 7.33586
Cbc0038I Pass   1: suminf.    0.00000 (0) obj. 3.52919e+08 iterations 35
Cbc0038I Solution found of 3.52919e+08
Cbc0038I Relaxing continuous gives 2.67463e+08
Cbc0038I Before mini branch and bound, 0 integers at bound fixed and 1156 continuous
Cbc0038I Full problem 70 rows 1260 columns, reduced to 66 rows 96 columns
Cbc0038I Mini branch and bound improved solution from 2.67463e+08 to 1.49491e+08 (0.02 seconds)
Cbc0038I Freeing continuous variables gives a solution of 1.40962e+08
Cbc0038I Round again with cutoff of 1.32492e+08
Cbc0038I Pass   2: suminf.    1.77684 (8) obj. 1.32492e+08 iterations 54
Cbc0038I Pass   3: suminf.    0.31553 (2) obj. 1.32492e+08 iterations 37
Cbc0038I Pass   4: suminf.    0.30566 (2) obj. 1.32492e+08 iterations 1
Cbc0038I Pass   5: suminf.    0.30977 (1) obj. 1.32492e+08 iterations 9
Cbc0038I Pass   6: suminf.    0.23918 (1) obj. 1.32492e+08 iterations 8
Cbc0038I Pass   7: suminf.    0.45763 (3) obj. 1.32492e+08 iterations 55
Cbc0038I Pass   8: suminf.    0.42384 (2) obj. 1.32492e+08 iterations 4
Cbc0038I Pass   9: suminf.    0.41202 (3) obj. 1.32492e+08 iterations 2
Cbc0038I Pass  10: suminf.    0.34582 (1) obj. 1.32492e+08 iterations 10
Cbc0038I Pass  11: suminf.    0.29623 (1) obj. 1.32492e+08 iterations 5
Cbc0038I Pass  12: suminf.    0.25721 (2) obj. 1.32492e+08 iterations 20
Cbc0038I Pass  13: suminf.    0.38961 (1) obj. 1.32492e+08 iterations 4
Cbc0038I Pass  14: suminf.    0.16967 (1) obj. 1.32492e+08 iterations 5
Cbc0038I Pass  15: suminf.    0.68592 (2) obj. 1.32492e+08 iterations 39
Cbc0038I Pass  16: suminf.    0.34283 (1) obj. 1.32492e+08 iterations 1
Cbc0038I Pass  17: suminf.    0.34433 (1) obj. 1.32492e+08 iterations 2
Cbc0038I Pass  18: suminf.    0.38263 (1) obj. 1.32492e+08 iterations 14
Cbc0038I Pass  19: suminf.    0.21378 (1) obj. 1.32492e+08 iterations 2
Cbc0038I Pass  20: suminf.    0.38263 (1) obj. 1.32492e+08 iterations 2
Cbc0038I Pass  21: suminf.    0.77732 (2) obj. 1.32492e+08 iterations 36
Cbc0038I Pass  22: suminf.    0.50394 (2) obj. 1.32492e+08 iterations 3
Cbc0038I Pass  23: suminf.    0.38359 (2) obj. 1.32492e+08 iterations 4
Cbc0038I Pass  24: suminf.    0.38359 (2) obj. 1.32492e+08 iterations 0
Cbc0038I Pass  25: suminf.    0.35644 (1) obj. 1.32492e+08 iterations 4
Cbc0038I Pass  26: suminf.    0.30203 (1) obj. 1.32492e+08 iterations 4
Cbc0038I Pass  27: suminf.    0.51353 (2) obj. 1.32492e+08 iterations 10
Cbc0038I Pass  28: suminf.    0.41539 (2) obj. 1.32492e+08 iterations 5
Cbc0038I Pass  29: suminf.    0.41539 (2) obj. 1.32492e+08 iterations 0
Cbc0038I Pass  30: suminf.    0.37970 (1) obj. 1.32492e+08 iterations 8
Cbc0038I Pass  31: suminf.    0.22366 (1) obj. 1.32492e+08 iterations 4
Cbc0038I Rounding solution of 1.39014e+08 is better than previous of 1.40962e+08

Cbc0038I Before mini branch and bound, 0 integers at bound fixed and 1122 continuous
Cbc0038I Full problem 70 rows 1260 columns, reduced to 62 rows 126 columns
Cbc0038I Mini branch and bound improved solution from 1.39014e+08 to 1.30873e+08 (0.08 seconds)
Cbc0038I Round again with cutoff of 1.1595e+08
Cbc0038I Pass  31: suminf.    2.26978 (11) obj. 1.1595e+08 iterations 6
Cbc0038I Pass  32: suminf.    1.04300 (5) obj. 1.1595e+08 iterations 34
Cbc0038I Pass  33: suminf.    1.00424 (6) obj. 1.1595e+08 iterations 3
Cbc0038I Pass  34: suminf.    0.60709 (3) obj. 1.1595e+08 iterations 22
Cbc0038I Pass  35: suminf.    0.60709 (3) obj. 1.1595e+08 iterations 0
Cbc0038I Pass  36: suminf.    0.86895 (3) obj. 1.1595e+08 iterations 6
Cbc0038I Pass  37: suminf.    0.86895 (3) obj. 1.1595e+08 iterations 0
Cbc0038I Pass  38: suminf.    1.25511 (3) obj. 1.1595e+08 iterations 5
Cbc0038I Pass  39: suminf.    1.20857 (4) obj. 1.1595e+08 iterations 17
Cbc0038I Pass  40: suminf.    0.97110 (3) obj. 1.1595e+08 iterations 1
Cbc0038I Pass  41: suminf.    0.68921 (3) obj. 1.1595e+08 iterations 7
Cbc0038I Pass  42: suminf.    0.68921 (3) obj. 1.1595e+08 iterations 0
Cbc0038I Pass  43: suminf.    0.86895 (3) obj. 1.1595e+08 iterations 4
Cbc0038I Pass  44: suminf.    0.86895 (3) obj. 1.1595e+08 iterations 0
Cbc0038I Pass  45: suminf.    1.25511 (3) obj. 1.1595e+08 iterations 5
Cbc0038I Pass  46: suminf.    1.04650 (4) obj. 1.1595e+08 iterations 23
Cbc0038I Pass  47: suminf.    0.86803 (4) obj. 1.1595e+08 iterations 2
Cbc0038I Pass  48: suminf.    0.97016 (4) obj. 1.1595e+08 iterations 10
Cbc0038I Pass  49: suminf.    0.97016 (4) obj. 1.1595e+08 iterations 0
Cbc0038I Pass  50: suminf.    1.30384 (5) obj. 1.1595e+08 iterations 7
Cbc0038I Pass  51: suminf.    1.21509 (5) obj. 1.1595e+08 iterations 2
Cbc0038I Pass  52: suminf.    1.68405 (5) obj. 1.1595e+08 iterations 11
Cbc0038I Pass  53: suminf.    1.64995 (6) obj. 1.1595e+08 iterations 3
Cbc0038I Pass  54: suminf.    1.97315 (5) obj. 1.1595e+08 iterations 13
Cbc0038I Pass  55: suminf.    1.82008 (5) obj. 1.1595e+08 iterations 1
Cbc0038I Pass  56: suminf.    2.03512 (5) obj. 1.1595e+08 iterations 5
Cbc0038I Pass  57: suminf.    2.03512 (5) obj. 1.1595e+08 iterations 0
Cbc0038I Pass  58: suminf.    1.82008 (5) obj. 1.1595e+08 iterations 5
Cbc0038I Pass  59: suminf.    2.19142 (9) obj. 1.1595e+08 iterations 22
Cbc0038I Pass  60: suminf.    2.15548 (10) obj. 1.1595e+08 iterations 2
Cbc0038I No solution found this major pass
Cbc0038I Before mini branch and bound, 0 integers at bound fixed and 1140 continuous
Cbc0038I Full problem 70 rows 1260 columns, reduced to 55 rows 102 columns
Cbc0038I Mini branch and bound improved solution from 1.30873e+08 to 1.28761e+08 (0.13 seconds)
Cbc0038I Freeing continuous variables gives a solution of 1.28326e+08
Cbc0038I Round again with cutoff of 9.80431e+07
Cbc0038I Pass  60: suminf.    2.98315 (17) obj. 9.80431e+07 iterations 7
Cbc0038I Pass  61: suminf.    3.69141 (14) obj. 9.80431e+07 iterations 39
Cbc0038I Pass  62: suminf.    3.57112 (15) obj. 9.80431e+07 iterations 5
Cbc0038I Pass  63: suminf.    3.73218 (17) obj. 9.80431e+07 iterations 19
Cbc0038I Pass  64: suminf.    3.68374 (16) obj. 9.80431e+07 iterations 3
Cbc0038I Pass  65: suminf.    3.60290 (16) obj. 9.80431e+07 iterations 5
Cbc0038I Pass  66: suminf.    3.58598 (16) obj. 9.80431e+07 iterations 1
Cbc0038I Pass  67: suminf.    3.72268 (16) obj. 9.80431e+07 iterations 11
Cbc0038I Pass  68: suminf.    3.56508 (16) obj. 9.80431e+07 iterations 3
Cbc0038I Pass  69: suminf.    3.72268 (16) obj. 9.80431e+07 iterations 7
Cbc0038I Pass  70: suminf.    4.19223 (16) obj. 9.80431e+07 iterations 13
Cbc0038I Pass  71: suminf.    3.77340 (16) obj. 9.80431e+07 iterations 4
Cbc0038I Pass  72: suminf.    3.85369 (16) obj. 9.80431e+07 iterations 8
Cbc0038I Pass  73: suminf.    3.58598 (16) obj. 9.80431e+07 iterations 5
Cbc0038I Pass  74: suminf.    3.72268 (16) obj. 9.80431e+07 iterations 11
Cbc0038I Pass  75: suminf.    3.56508 (16) obj. 9.80431e+07 iterations 3
Cbc0038I Pass  76: suminf.    3.68691 (16) obj. 9.80431e+07 iterations 3
Cbc0038I Pass  77: suminf.    3.60444 (15) obj. 9.80431e+07 iterations 11
Cbc0038I Pass  78: suminf.    3.60444 (15) obj. 9.80431e+07 iterations 0
Cbc0038I Pass  79: suminf.    3.76174 (15) obj. 9.80431e+07 iterations 8
Cbc0038I Pass  80: suminf.    3.66081 (15) obj. 9.80431e+07 iterations 3
Cbc0038I Pass  81: suminf.    3.96514 (15) obj. 9.80431e+07 iterations 7
Cbc0038I Pass  82: suminf.    3.94822 (15) obj. 9.80431e+07 iterations 1
Cbc0038I Pass  83: suminf.    3.73023 (14) obj. 9.80431e+07 iterations 8
Cbc0038I Pass  84: suminf.    3.59495 (14) obj. 9.80431e+07 iterations 23
Cbc0038I Pass  85: suminf.    3.57632 (15) obj. 9.80431e+07 iterations 1
Cbc0038I Pass  86: suminf.    3.75733 (14) obj. 9.80431e+07 iterations 16
Cbc0038I Pass  87: suminf.    3.27943 (12) obj. 9.80431e+07 iterations 7
Cbc0038I Pass  88: suminf.    3.60042 (13) obj. 9.80431e+07 iterations 6
Cbc0038I Pass  89: suminf.    4.32706 (17) obj. 9.80431e+07 iterations 16
Cbc0038I No solution found this major pass
Cbc0038I Before mini branch and bound, 0 integers at bound fixed and 1163 continuous
Cbc0038I Full problem 70 rows 1260 columns, reduced to 41 rows 63 columns
Cbc0038I Mini branch and bound did not improve solution (0.16 seconds)
Cbc0038I After 0.16 seconds - Feasibility pump exiting with objective of 1.28326e+08 - took 0.15 seconds
Cbc0012I Integer solution of 1.2832553e+08 found by feasibility pump after 0 iterations and 0 nodes (0.16 seconds)
Cbc0012I Integer solution of 1.2588694e+08 found by DiveCoefficient after 86 iterations and 0 nodes (0.19 seconds)
Cbc0031I 45 added rows had average density of 57.666667
Cbc0013I At root node, 45 cuts changed objective from 56260107 to 1.2588694e+08 in 9 passes
Cbc0014I Cut generator 0 (Probing) - 0 row cuts average 0.0 elements, 0 column cuts (0 active)  in 0.005 seconds - new frequency is -100
Cbc0014I Cut generator 1 (Gomory) - 59 row cuts average 69.5 elements, 0 column cuts (0 active)  in 0.002 seconds - new frequency is 1
Cbc0014I Cut generator 2 (Knapsack) - 0 row cuts average 0.0 elements, 0 column cuts (0 active)  in 0.001 seconds - new frequency is -100
Cbc0014I Cut generator 3 (Clique) - 0 row cuts average 0.0 elements, 0 column cuts (0 active)  in 0.000 seconds - new frequency is -100
Cbc0014I Cut generator 4 (MixedIntegerRounding2) - 0 row cuts average 0.0 elements, 0 column cuts (0 active)  in 0.002 seconds - new frequency is -100
Cbc0014I Cut generator 5 (FlowCover) - 0 row cuts average 0.0 elements, 0 column cuts (0 active)  in 0.005 seconds - new frequency is -100
Cbc0014I Cut generator 6 (TwoMirCuts) - 67 row cuts average 77.9 elements, 0 column cuts (0 active)  in 0.003 seconds - new frequency is 1
Cbc0001I Search completed - best objective 125886938.3360084, took 86 iterations and 0 nodes (0.19 seconds)
Cbc0032I Strong branching done 2 times (8 iterations), fathomed 1 nodes and fixed 0 variables
Cbc0035I Maximum depth 0, 0 variables fixed on reduced cost
Cuts at root node changed objective from 5.62601e+07 to 1.25887e+08
Probing was tried 9 times and created 0 cuts of which 0 were active after adding rounds of cuts (0.005 seconds)
Gomory was tried 9 times and created 59 cuts of which 0 were active after adding rounds of cuts (0.002 seconds)
Knapsack was tried 9 times and created 0 cuts of which 0 were active after adding rounds of cuts (0.001 seconds)
Clique was tried 9 times and created 0 cuts of which 0 were active after adding rounds of cuts (0.000 seconds)
MixedIntegerRounding2 was tried 9 times and created 0 cuts of which 0 were active after adding rounds of cuts (0.002 seconds)
FlowCover was tried 9 times and created 0 cuts of which 0 were active after adding rounds of cuts (0.005 seconds)
TwoMirCuts was tried 9 times and created 67 cuts of which 0 were active after adding rounds of cuts (0.003 seconds)
ZeroHalf was tried 1 times and created 0 cuts of which 0 were active after adding rounds of cuts (0.000 seconds)

Result - Optimal solution found

Objective value:                125886938.33600843
Enumerated nodes:               0
Total iterations:               86
Time (CPU seconds):             0.20
Time (Wallclock seconds):       0.20

Option for printingOptions changed from normal to all
Total time (CPU seconds):       0.20   (Wallclock seconds):       0.20

